Route #1: 1 18 41 59 11 59 39 12 67 12 66 12 54 20 15 20 55 14 58 14 9 36 8 9 68 1 
Route #2: 1 27 13 41 45 41 40 10 33 26 56 26 51 19 50 25 50 17 1 
Route #3: 1 69 1 
Route #4: 1 5 1 
Route #5: 1 7 1 
Route #6: 1 35 47 9 53 28 14 30 49 31 49 46 49 6 38 16 38 21 38 48 37 70 37 22 49 63 17 1 
Route #7: 1 17 64 24 57 24 44 42 43 65 43 23 63 29 63 3 63 2 63 34 17 52 17 4 41 1 
Cost 859.0
